spring_18/ind_study/IWLS18/exps/iwls18_exps/mas_mont_sat_CE/Mast_3_MontFlat3_0.cnf
p cnf 111 338
20 -1 -4 0
-20 1 0
-20 4 0
26 -2 -6 0
-26 2 0
-26 6 0
27 -3 -5 0
-27 3 0
-27 5 0
14 -1 -5 0
-14 1 0
-14 5 0
21 -2 -4 0
-21 2 0
-21 4 0
18 -2 -6 0
-18 2 0
-18 6 0
17 -3 -5 0
-17 3 0
-17 5 0
25 -3 -6 0
-25 3 0
-25 6 0
15 -1 -6 0
-15 1 0
-15 6 0
12 -2 -5 0
-12 2 0
-12 5 0
13 -3 -4 0
-13 3 0
-13 4 0
24 -3 -6 0
-24 3 0
-24 6 0
-23 -20 -26 0
23 20 -26 0
23 -20 26 0
-23 20 26 0
-16 -14 -21 0
16 14 -21 0
16 -14 21 0
-16 14 21 0
-22 -18 -17 0
22 18 -17 0
22 -18 17 0
-22 18 17 0
-28 -15 -12 0
28 15 -12 0
28 -15 12 0
-28 15 12 0
-11 -13 -24 0
11 13 -24 0
11 -13 24 0
-11 13 24 0
-87 -23 -27 0
87 23 -27 0
87 -23 27 0
-87 23 27 0
16 -7 93 0
16 7 -93 0
-16 -8 93 0
-16 8 -93 0
16 -9 94 0
16 9 -94 0
-16 -10 94 0
-16 10 -94 0
22 -93 19 0
22 93 -19 0
-22 -94 19 0
-22 94 -19 0
-91 -28 -11 0
91 28 -11 0
91 -28 11 0
-91 28 11 0
-89 -19 -25 0
89 19 -25 0
89 -19 25 0
-89 19 25 0
54 -1 -1 0
-54 1 0
-54 1 0
66 -54 -54 0
-66 54 0
-66 54 0
55 -1 -1 0
-55 1 0
-55 1 0
49 -54 -54 0
-49 54 0
-49 54 0
-72 -66 -2 0
72 66 -2 0
72 -66 2 0
-72 66 2 0
-67 -55 -72 0
67 55 -72 0
67 -55 72 0
-67 55 72 0
-39 -49 -2 0
39 49 -2 0
39 -49 2 0
-39 49 2 0
65 -72 -72 0
-65 72 0
-65 72 0
-81 -67 -3 0
81 67 -3 0
81 -67 3 0
-81 67 3 0
-41 -39 -81 0
41 39 -81 0
41 -39 81 0
-41 39 81 0
-75 -65 -3 0
75 65 -3 0
75 -65 3 0
-75 65 3 0
69 -81 -81 0
-69 81 0
-69 81 0
61 -41 -41 0
-61 41 0
-61 41 0
85 -75 -75 0
-85 75 0
-85 75 0
53 -69 -69 0
-53 69 0
-53 69 0
43 -4 -4 0
-43 4 0
-43 4 0
37 -43 -43 0
-37 43 0
-37 43 0
82 -4 -4 0
-82 4 0
-82 4 0
47 -43 -43 0
-47 43 0
-47 43 0
-40 -37 -5 0
40 37 -5 0
40 -37 5 0
-40 37 5 0
-77 -82 -40 0
77 82 -40 0
77 -82 40 0
-77 82 40 0
-68 -47 -5 0
68 47 -5 0
68 -47 5 0
-68 47 5 0
31 -40 -40 0
-31 40 0
-31 40 0
-50 -77 -6 0
50 77 -6 0
50 -77 6 0
-50 77 6 0
-35 -68 -50 0
35 68 -50 0
35 -68 50 0
-35 68 50 0
-36 -31 -6 0
36 31 -6 0
36 -31 6 0
-36 31 6 0
34 -50 -50 0
-34 50 0
-34 50 0
58 -35 -35 0
-58 35 0
-58 35 0
78 -36 -36 0
-78 36 0
-78 36 0
73 -34 -34 0
-73 34 0
-73 34 0
59 -61 -58 0
-59 61 0
-59 58 0
95 -61 -78 0
-95 61 0
-95 78 0
-60 -95 -59 0
60 95 -59 0
60 -95 59 0
-60 95 59 0
96 -85 -58 0
-96 85 0
-96 58 0
-83 -96 -60 0
83 96 -60 0
83 -96 60 0
-83 96 60 0
38 -61 -73 0
-38 61 0
-38 73 0
57 -59 -59 0
-57 59 0
-57 59 0
97 -85 -78 0
-97 85 0
-97 78 0
-98 -97 -38 0
98 97 -38 0
98 -97 38 0
-98 97 38 0
-64 -98 -83 0
64 98 -83 0
64 -98 83 0
-64 98 83 0
99 -85 -73 0
-99 85 0
-99 73 0
-32 -99 -57 0
32 99 -57 0
32 -99 57 0
-32 99 57 0
30 -83 -83 0
-30 83 0
-30 83 0
100 -53 -58 0
-100 53 0
-100 58 0
-71 -100 -64 0
71 100 -64 0
71 -100 64 0
-71 100 64 0
101 -53 -78 0
-101 53 0
-101 78 0
-102 -101 -32 0
102 101 -32 0
102 -101 32 0
-102 101 32 0
-84 -102 -71 0
84 102 -71 0
84 -102 71 0
-84 102 71 0
103 -53 -73 0
-103 53 0
-103 73 0
-48 -103 -30 0
48 103 -30 0
48 -103 30 0
-48 103 30 0
62 -71 -71 0
-62 71 0
-62 71 0
33 -84 -84 0
-33 84 0
-33 84 0
44 -48 -48 0
-44 48 0
-44 48 0
52 -62 -62 0
-52 62 0
-52 62 0
51 -33 -33 0
-51 33 0
-51 33 0
80 -51 -51 0
-80 51 0
-80 51 0
45 -111 -111 0
-45 111 0
-45 111 0
46 -51 -51 0
-46 51 0
-46 51 0
-74 -80 -44 0
74 80 -44 0
74 -80 44 0
-74 80 44 0
-29 -45 -74 0
29 45 -74 0
29 -45 74 0
-29 45 74 0
79 -46 -46 0
-79 46 0
-79 46 0
86 -74 -74 0
-86 74 0
-86 74 0
-63 -29 -52 0
63 29 -52 0
63 -29 52 0
-63 29 52 0
-76 -79 -63 0
76 79 -63 0
76 -79 63 0
-76 79 63 0
42 -86 -86 0
-42 86 0
-42 86 0
56 -63 -63 0
-56 63 0
-56 63 0
88 -76 -76 0
-88 76 0
-88 76 0
90 -42 -42 0
-90 42 0
-90 42 0
92 -56 -56 0
-92 56 0
-92 56 0
-104 -87 -88 0
104 87 -88 0
104 -87 88 0
-104 87 88 0
-105 -89 -90 0
105 89 -90 0
105 -89 90 0
-105 89 90 0
-106 -91 -92 0
106 91 -92 0
106 -91 92 0
-106 91 92 0
-107 -111 -111 0
107 111 -111 0
107 -111 111 0
-107 111 111 0
-108 104 105 0
108 -104 0
108 -105 0
-109 106 107 0
109 -106 0
109 -107 0
-110 108 109 0
110 -108 0
110 -109 0
110 0
